;; Preprocessed for Astral solver
(set-info :status unsat)
;; variables
(declare-const x0 Loc)
(declare-const x1 Loc)
(declare-const x2 Loc)
(declare-const x3 Loc)
(declare-const x4 Loc)
(declare-const x5 Loc)
(declare-const x6 Loc)
(declare-const x7 Loc)
(declare-const x8 Loc)
(declare-const x9 Loc)
(declare-const x10 Loc)
(declare-const x11 Loc)
(declare-const x12 Loc)
(declare-const x13 Loc)
(declare-const x14 Loc)
(declare-const x15 Loc)
(declare-const x16 Loc)
(declare-const x17 Loc)
(declare-const x18 Loc)
(declare-const x19 Loc)

(assert 
		(sep 
			(= nil nil)
			(distinct x6 x14)
			(distinct x3 x6)
			(distinct x3 x13)
			(distinct x4 x6)
			(distinct x4 x7)
			(distinct x4 x12)
			(distinct x1 x3)
			(distinct x10 x15)
		(sep 
			(ls x13 x2 )
			(ls x4 x9 )
			(ls x4 x13 )
			(ls x1 x5 )
			(ls x1 x6 )
			(ls x8 x14 )
			(ls x8 x15 )
			(ls x8 x1 )
			(ls x14 x8 )
			(ls x15 x4 )
			(ls x2 x15 )
			(ls x2 x9 )
			(ls x9 x7 )
			(ls x9 x6 )
			(ls x3 x10 )
			(ls x6 x2 )
		)

		)

)

(check-sat)
